N_J = 28;
N_H = 22;
N_D = 1;
y = 6;
a = 1;
b = 1;
D = [
[0, 0, 0, 0, 0, 0, 0, 0, 0, 0, 0, 0, 0, 0, 0, 0, 0, 0, 0, 0, 0, 0, 0],
[5, 1, 4, 1, 4, 2, 2, 0, 3, 0, 1, 2, 2, 4, 4, 5, 4, 0, 5, 4, 2, 1, 0],
[5, 1, 4, 1, 4, 2, 2, 0, 3, 0, 1, 2, 2, 4, 4, 5, 4, 0, 5, 4, 2, 1, 0],
[5, 1, 4, 1, 4, 2, 2, 0, 3, 0, 1, 2, 2, 4, 4, 5, 4, 0, 5, 4, 2, 1, 0],
[5, 1, 4, 1, 4, 2, 2, 0, 3, 0, 1, 2, 2, 4, 4, 5, 4, 0, 5, 4, 2, 1, 0],
[5, 1, 4, 1, 4, 2, 2, 0, 3, 0, 1, 2, 2, 4, 4, 5, 4, 0, 5, 4, 2, 1, 0],
[5, 1, 4, 1, 4, 2, 2, 0, 3, 0, 1, 2, 2, 4, 4, 5, 4, 0, 5, 4, 2, 1, 0],
[5, 1, 4, 1, 4, 2, 2, 0, 3, 0, 1, 2, 2, 4, 4, 5, 4, 0, 5, 4, 2, 1, 0],
[5, 1, 4, 1, 4, 2, 2, 0, 3, 0, 1, 2, 2, 4, 4, 5, 4, 0, 5, 4, 2, 1, 0],
[5, 1, 4, 1, 4, 2, 2, 0, 3, 0, 1, 2, 2, 4, 4, 5, 4, 0, 5, 4, 2, 1, 0],
[5, 1, 4, 1, 4, 2, 2, 0, 3, 0, 1, 2, 2, 4, 4, 5, 4, 0, 5, 4, 2, 1, 0],
[5, 1, 4, 1, 4, 2, 2, 0, 3, 0, 1, 2, 2, 4, 4, 5, 4, 0, 5, 4, 2, 1, 0],
[5, 1, 4, 1, 4, 2, 2, 0, 3, 0, 1, 2, 2, 4, 4, 5, 4, 0, 5, 4, 2, 1, 0],
[5, 1, 4, 1, 4, 2, 2, 0, 3, 0, 1, 2, 2, 4, 4, 5, 4, 0, 5, 4, 2, 1, 0],
[5, 1, 4, 1, 4, 2, 2, 0, 3, 0, 1, 2, 2, 4, 4, 5, 4, 0, 5, 4, 2, 1, 0],
[5, 1, 4, 1, 4, 2, 2, 0, 3, 0, 1, 2, 2, 4, 4, 5, 4, 0, 5, 4, 2, 1, 0],
[5, 1, 4, 1, 4, 2, 2, 0, 3, 0, 1, 2, 2, 4, 4, 5, 4, 0, 5, 4, 2, 1, 0],
[5, 1, 4, 1, 4, 2, 2, 0, 3, 0, 1, 2, 2, 4, 4, 5, 4, 0, 5, 4, 2, 1, 0],
[5, 1, 4, 1, 4, 2, 2, 0, 3, 0, 1, 2, 2, 4, 4, 5, 4, 0, 5, 4, 2, 1, 0],
[5, 1, 4, 1, 4, 2, 2, 0, 3, 0, 1, 2, 2, 4, 4, 5, 4, 0, 5, 4, 2, 1, 0],
[5, 1, 4, 1, 4, 2, 2, 0, 3, 0, 1, 2, 2, 4, 4, 5, 4, 0, 5, 4, 2, 1, 0],
[5, 1, 4, 1, 4, 2, 2, 0, 3, 0, 1, 2, 2, 4, 4, 5, 4, 0, 5, 4, 2, 1, 0],
[5, 1, 4, 1, 4, 2, 2, 0, 3, 0, 1, 2, 2, 4, 4, 5, 4, 0, 5, 4, 2, 1, 0],
[5, 1, 4, 1, 4, 2, 2, 0, 3, 0, 1, 2, 2, 4, 4, 5, 4, 0, 5, 4, 2, 1, 0],
[5, 1, 4, 1, 4, 2, 2, 0, 3, 0, 1, 2, 2, 4, 4, 5, 4, 0, 5, 4, 2, 1, 0],
[5, 1, 4, 1, 4, 2, 2, 0, 3, 0, 1, 2, 2, 4, 4, 5, 4, 0, 5, 4, 2, 1, 0],
[5, 1, 4, 1, 4, 2, 2, 0, 3, 0, 1, 2, 2, 4, 4, 5, 4, 0, 5, 4, 2, 1, 0],
[5, 1, 4, 1, 4, 2, 2, 0, 3, 0, 1, 2, 2, 4, 4, 5, 4, 0, 5, 4, 2, 1, 0],
[5, 1, 4, 1, 4, 2, 2, 0, 3, 0, 1, 2, 2, 4, 4, 5, 4, 0, 5, 4, 2, 1, 0]
];
M = 30;
I = [
[0, 0, 0, 0, 0, 0, 0, 0, 0, 0, 0, 0, 0, 0, 0, 0, 0, 0, 0, 0, 0, 0, 0],
[0, 1, 6, 0, 0, 6, 6, 3, 3, 6, 3, 4, 1, 3, 6, 6, 4, 0, 3, 2, 5, 0, 0],
[0, 1, 6, 0, 0, 6, 6, 3, 3, 6, 3, 4, 1, 3, 6, 6, 4, 0, 3, 2, 5, 0, 0],
[0, 1, 6, 0, 0, 6, 6, 3, 3, 6, 3, 4, 1, 3, 6, 6, 4, 0, 3, 2, 5, 0, 0],
[0, 1, 6, 0, 0, 6, 6, 3, 3, 6, 3, 4, 1, 3, 6, 6, 4, 0, 3, 2, 5, 0, 0],
[0, 1, 6, 0, 0, 6, 6, 3, 3, 6, 3, 4, 1, 3, 6, 6, 4, 0, 3, 2, 5, 0, 0],
[0, 1, 6, 0, 0, 6, 6, 3, 3, 6, 3, 4, 1, 3, 6, 6, 4, 0, 3, 2, 5, 0, 0],
[0, 1, 6, 0, 0, 6, 6, 3, 3, 6, 3, 4, 1, 3, 6, 6, 4, 0, 3, 2, 5, 0, 0],
[0, 1, 6, 0, 0, 6, 6, 3, 3, 6, 3, 4, 1, 3, 6, 6, 4, 0, 3, 2, 5, 0, 0],
[0, 1, 6, 0, 0, 6, 6, 3, 3, 6, 3, 4, 1, 3, 6, 6, 4, 0, 3, 2, 5, 0, 0],
[0, 1, 6, 0, 0, 6, 6, 3, 3, 6, 3, 4, 1, 3, 6, 6, 4, 0, 3, 2, 5, 0, 0],
[0, 1, 6, 0, 0, 6, 6, 3, 3, 6, 3, 4, 1, 3, 6, 6, 4, 0, 3, 2, 5, 0, 0],
[0, 1, 6, 0, 0, 6, 6, 3, 3, 6, 3, 4, 1, 3, 6, 6, 4, 0, 3, 2, 5, 0, 0],
[0, 1, 6, 0, 0, 6, 6, 3, 3, 6, 3, 4, 1, 3, 6, 6, 4, 0, 3, 2, 5, 0, 0],
[0, 1, 6, 0, 0, 6, 6, 3, 3, 6, 3, 4, 1, 3, 6, 6, 4, 0, 3, 2, 5, 0, 0],
[0, 1, 6, 0, 0, 6, 6, 3, 3, 6, 3, 4, 1, 3, 6, 6, 4, 0, 3, 2, 5, 0, 0],
[0, 1, 6, 0, 0, 6, 6, 3, 3, 6, 3, 4, 1, 3, 6, 6, 4, 0, 3, 2, 5, 0, 0],
[0, 1, 6, 0, 0, 6, 6, 3, 3, 6, 3, 4, 1, 3, 6, 6, 4, 0, 3, 2, 5, 0, 0],
[0, 1, 6, 0, 0, 6, 6, 3, 3, 6, 3, 4, 1, 3, 6, 6, 4, 0, 3, 2, 5, 0, 0],
[0, 1, 6, 0, 0, 6, 6, 3, 3, 6, 3, 4, 1, 3, 6, 6, 4, 0, 3, 2, 5, 0, 0],
[0, 1, 6, 0, 0, 6, 6, 3, 3, 6, 3, 4, 1, 3, 6, 6, 4, 0, 3, 2, 5, 0, 0],
[0, 1, 6, 0, 0, 6, 6, 3, 3, 6, 3, 4, 1, 3, 6, 6, 4, 0, 3, 2, 5, 0, 0],
[0, 1, 6, 0, 0, 6, 6, 3, 3, 6, 3, 4, 1, 3, 6, 6, 4, 0, 3, 2, 5, 0, 0],
[0, 1, 6, 0, 0, 6, 6, 3, 3, 6, 3, 4, 1, 3, 6, 6, 4, 0, 3, 2, 5, 0, 0],
[0, 1, 6, 0, 0, 6, 6, 3, 3, 6, 3, 4, 1, 3, 6, 6, 4, 0, 3, 2, 5, 0, 0],
[0, 1, 6, 0, 0, 6, 6, 3, 3, 6, 3, 4, 1, 3, 6, 6, 4, 0, 3, 2, 5, 0, 0],
[0, 1, 6, 0, 0, 6, 6, 3, 3, 6, 3, 4, 1, 3, 6, 6, 4, 0, 3, 2, 5, 0, 0],
[0, 1, 6, 0, 0, 6, 6, 3, 3, 6, 3, 4, 1, 3, 6, 6, 4, 0, 3, 2, 5, 0, 0],
[0, 1, 6, 0, 0, 6, 6, 3, 3, 6, 3, 4, 1, 3, 6, 6, 4, 0, 3, 2, 5, 0, 0]
];
F = [
[0, 1, 0, 0, 0, 1, 0, 1, 0, 0, 1, 0, 1, 0, 0, 0, 0, 1, 1, 0, 0, 0, 0],
[0, 1, 0, 0, 0, 1, 0, 1, 0, 0, 1, 0, 1, 0, 0, 0, 0, 1, 1, 0, 0, 0, 0],
[0, 1, 0, 0, 0, 1, 0, 1, 0, 0, 1, 0, 1, 0, 0, 0, 0, 1, 1, 0, 0, 0, 0],
[0, 1, 0, 0, 0, 1, 0, 1, 0, 0, 1, 0, 1, 0, 0, 0, 0, 1, 1, 0, 0, 0, 0],
[0, 1, 0, 0, 0, 1, 0, 1, 0, 0, 1, 0, 1, 0, 0, 0, 0, 1, 1, 0, 0, 0, 0],
[0, 1, 0, 0, 0, 1, 0, 1, 0, 0, 1, 0, 1, 0, 0, 0, 0, 1, 1, 0, 0, 0, 0],
[0, 1, 0, 0, 0, 1, 0, 1, 0, 0, 1, 0, 1, 0, 0, 0, 0, 1, 1, 0, 0, 0, 0],
[0, 1, 0, 0, 0, 1, 0, 1, 0, 0, 1, 0, 1, 0, 0, 0, 0, 1, 1, 0, 0, 0, 0],
[0, 1, 0, 0, 0, 1, 0, 1, 0, 0, 1, 0, 1, 0, 0, 0, 0, 1, 1, 0, 0, 0, 0],
[0, 1, 0, 0, 0, 1, 0, 1, 0, 0, 1, 0, 1, 0, 0, 0, 0, 1, 1, 0, 0, 0, 0],
[0, 1, 0, 0, 0, 1, 0, 1, 0, 0, 1, 0, 1, 0, 0, 0, 0, 1, 1, 0, 0, 0, 0],
[0, 1, 0, 0, 0, 1, 0, 1, 0, 0, 1, 0, 1, 0, 0, 0, 0, 1, 1, 0, 0, 0, 0],
[0, 1, 0, 0, 0, 1, 0, 1, 0, 0, 1, 0, 1, 0, 0, 0, 0, 1, 1, 0, 0, 0, 0],
[0, 1, 0, 0, 0, 1, 0, 1, 0, 0, 1, 0, 1, 0, 0, 0, 0, 1, 1, 0, 0, 0, 0],
[0, 1, 0, 0, 0, 1, 0, 1, 0, 0, 1, 0, 1, 0, 0, 0, 0, 1, 1, 0, 0, 0, 0],
[0, 1, 0, 0, 0, 1, 0, 1, 0, 0, 1, 0, 1, 0, 0, 0, 0, 1, 1, 0, 0, 0, 0],
[0, 1, 0, 0, 0, 1, 0, 1, 0, 0, 1, 0, 1, 0, 0, 0, 0, 1, 1, 0, 0, 0, 0],
[0, 1, 0, 0, 0, 1, 0, 1, 0, 0, 1, 0, 1, 0, 0, 0, 0, 1, 1, 0, 0, 0, 0],
[0, 1, 0, 0, 0, 1, 0, 1, 0, 0, 1, 0, 1, 0, 0, 0, 0, 1, 1, 0, 0, 0, 0],
[0, 1, 0, 0, 0, 1, 0, 1, 0, 0, 1, 0, 1, 0, 0, 0, 0, 1, 1, 0, 0, 0, 0],
[0, 1, 0, 0, 0, 1, 0, 1, 0, 0, 1, 0, 1, 0, 0, 0, 0, 1, 1, 0, 0, 0, 0],
[0, 1, 0, 0, 0, 1, 0, 1, 0, 0, 1, 0, 1, 0, 0, 0, 0, 1, 1, 0, 0, 0, 0],
[0, 1, 0, 0, 0, 1, 0, 1, 0, 0, 1, 0, 1, 0, 0, 0, 0, 1, 1, 0, 0, 0, 0],
[0, 1, 0, 0, 0, 1, 0, 1, 0, 0, 1, 0, 1, 0, 0, 0, 0, 1, 1, 0, 0, 0, 0],
[0, 1, 0, 0, 0, 1, 0, 1, 0, 0, 1, 0, 1, 0, 0, 0, 0, 1, 1, 0, 0, 0, 0],
[0, 1, 0, 0, 0, 1, 0, 1, 0, 0, 1, 0, 1, 0, 0, 0, 0, 1, 1, 0, 0, 0, 0],
[0, 1, 0, 0, 0, 1, 0, 1, 0, 0, 1, 0, 1, 0, 0, 0, 0, 1, 1, 0, 0, 0, 0],
[0, 1, 0, 0, 0, 1, 0, 1, 0, 0, 1, 0, 1, 0, 0, 0, 0, 1, 1, 0, 0, 0, 0],
[0, 1, 0, 0, 0, 1, 0, 1, 0, 0, 1, 0, 1, 0, 0, 0, 0, 1, 1, 0, 0, 0, 0]
];
N_P = 14;
n = [2, 2, 1, 2, 3, 2, 3, 2, 1, 2, 3, 1, 3, 3];
p_C = [0, 0, 2, 3, 1, 3, 2, 2, 2, 2, 3, 2, 2, 1];
p_D = [2, 2, 1, 3, 1, 3, 3, 2, 1, 0, 1, 0, 1, 3];
Delta = [
[0, 3],
[0, 2],
[0],
[0, 2],
[0, 2, 3],
[0, 1],
[0, 3, 3],
[0, 2],
[0],
[0, 1],
[0, 1, 1],
[0],
[0, 1, 2],
[0, 1, 2]
];
e_A = [
[1, 1],
[0, 1],
[1],
[0, 0],
[0, 0, 1],
[1, 0],
[1, 1, 1],
[0, 0],
[0],
[0, 1],
[0, 1, 0],
[0],
[1, 1, 1],
[1, 0, 1]
];
e_C = [
[1, 0],
[0, 0],
[0],
[1, 1],
[1, 0, 0],
[0, 1],
[0, 1, 0],
[0, 1],
[0],
[0, 1],
[1, 1, 0],
[1],
[0, 0, 1],
[1, 0, 0]
];
